132017
66,59,44,87,1,28,27,10,76,58,24,102,74,83,57,92,23,80,89,93,12,8,97,55,29,30,5,52,65,31,13,98,106,42,19,99,68,50,9,34,26,14,47,61,103,4,15,75,35,100,45,25,81,46,77,6,69,88,40,56,20,16,64,90,17,21,22,86,62,2,72,82,51,63,32,7,53,84,33,73,48,85,54,71,36,39,37,49,18,70,101,95,67,41,11,104,38,105,3,94,78,96,60,91,79,43